# Force-field settings file generated on 2023-11-17 via gen_data.py, version 1 May 2020

# ~~~~~Non-bonded~~~~~
# e.g., pair_coeff type eps sig
pair_coeff 1   1   0.20000  5.00000 
# ~~~~~BONDS~~~~~
# e.g., bond_coeff type k  r0 
bond_coeff  1 harmonic   10.000  3.800

# ~~~~~ANGLES~~~~~
# e.g., angle_coeff type k(kcal/mol/rad**2)  theta_0 (degrees)

# ~~~~~DIHEDRALS~~~~~
# e.g., dihedral_coeff type k(kcal/mol) n d weighting_factor
